23 22 35 28 16 23 24 16 29 23 28 31 22 16 21 21 14 32 35 32 
23 27 37 31 14 29 27 18 28 22 29 32 22 16 21 21 10 32 33 26 
22 28 32 28 14 23 25 18 27 22 26 33 23 17 22 19 19 32 32 25 
21 23 32 27 14 21 27 17 28 24 25 29 22 18 21 21 13 31 32 31 
23 25 29 31 16 24 29 16 29 24 27 31 16 18 22 19 20 32 33 35 
22 27 36 30 15 27 25 18 28 23 27 32 17 18 23 19 14 32 35 25 
22 29 32 30 15 28 27 18 29 24 29 29 21 18 23 21 17 30 32 34 
20 23 30 28 16 25 25 18 27 21 28 29 20 16 22 21 12 32 31 34 
20 22 35 27 15 20 19 18 28 24 25 33 17 17 21 21 19 30 34 34 
22 26 29 27 15 19 19 16 28 21 27 32 18 17 21 21 16 30 35 26 
21 26 33 28 14 29 19 18 28 20 26 29 16 16 23 19 18 30 31 35 
22 27 32 30 15 24 21 18 29 20 25 30 16 16 21 20 14 31 32 33 
23 27 37 31 15 22 21 16 27 20 26 30 24 18 22 19 19 30 35 25 
24 22 34 30 16 23 29 18 27 20 28 30 15 16 22 21 14 31 31 27 
21 26 31 28 16 24 25 16 27 22 28 32 19 17 21 19 20 32 33 35 
22 23 35 28 15 22 26 17 29 21 28 33 21 16 21 19 11 31 33 30 
21 25 34 29 15 19 23 17 29 21 29 31 21 17 21 21 11 30 32 31 
21 24 31 30 16 29 23 17 28 20 26 32 19 17 23 20 17 30 32 32 
22 26 35 30 15 24 19 16 27 21 29 32 22 17 22 19 17 30 32 28 
22 25 34 28 15 19 28 17 28 20 25 29 21 18 23 19 10 30 35 30 
22 27 33 30 16 19 25 18 27 22 25 33 20 18 23 19 15 30 32 32 
23 27 33 28 15 29 24 16 28 21 27 30 24 17 22 19 19 30 33 32 
23 27 34 28 16 27 23 16 29 24 28 33 20 18 23 20 13 31 33 28 
20 22 30 30 16 28 25 16 27 21 26 30 24 17 23 21 16 30 31 28 
22 21 36 31 15 23 28 18 29 23 28 31 20 17 23 21 15 30 31 26 
21 29 34 28 16 24 24 18 27 21 26 30 19 17 23 19 10 32 33 30 
24 27 37 29 14 27 20 16 29 24 27 31 17 16 23 20 13 32 31 31 
24 26 29 27 14 22 29 17 27 21 25 31 20 17 21 21 19 31 32 27 
21 28 30 30 15 28 26 16 29 20 25 32 23 18 21 21 13 30 33 35 
21 29 35 27 14 22 27 17 27 20 26 33 17 16 22 21 11 32 35 35 
24 24 32 30 14 27 21 16 29 22 29 31 20 18 22 21 17 30 31 31 
23 29 30 27 16 20 22 17 28 23 27 33 24 16 23 19 11 30 33 34 
22 24 32 31 16 20 21 18 29 22 25 30 15 16 22 20 13 31 34 26 
23 23 31 28 14 22 22 17 29 20 25 30 15 18 22 20 13 31 31 32 
23 24 32 27 15 29 23 18 28 22 29 29 20 18 21 19 15 31 32 28 
23 27 32 28 14 26 24 16 28 23 27 30 16 16 22 20 17 32 33 32 
20 26 32 31 15 29 22 18 28 23 27 29 17 17 23 20 15 30 35 35 
20 24 35 27 16 28 19 18 28 24 27 29 24 16 23 20 19 30 32 29 
22 29 33 30 15 26 21 17 29 23 28 33 18 16 22 19 14 30 31 26 
20 24 33 27 14 20 25 18 29 23 29 30 25 18 22 20 16 30 33 34 
24 26 37 29 15 26 20 17 28 20 27 29 25 18 23 21 12 31 35 25 
22 29 34 29 15 25 22 16 27 24 27 30 16 16 23 20 15 30 33 29 
21 21 30 28 14 26 27 18 29 24 25 31 24 17 22 20 19 32 35 29 
23 29 37 30 14 19 29 18 28 22 26 33 20 17 23 21 10 32 34 26 
23 29 34 30 15 21 21 16 29 20 28 29 18 16 21 21 18 31 33 28 
21 24 35 29 15 26 25 18 29 21 28 33 24 16 23 21 20 30 34 29 
21 23 35 31 15 29 24 17 27 22 26 32 19 16 22 20 10 32 33 30 
23 29 31 30 14 28 21 16 27 22 28 33 24 18 22 20 16 31 34 35 
22 24 37 28 14 25 24 16 29 22 28 29 17 17 22 19 18 31 35 35 
21 23 37 27 16 25 25 16 29 21 26 30 18 17 23 21 12 31 34 29 